p cnf 74 112
-38 27 0
-38 28 0
38 -27 -28 0
-39 23 0
-39 24 0
39 -23 -24 0
-40 19 0
-40 20 0
40 -19 -20 0
-41 21 0
-41 22 0
41 -21 -22 0
-42 -40 0
-42 -41 0
42 40 41 0
-43 -39 0
-43 42 0
43 39 -42 0
-44 25 0
-44 26 0
44 -25 -26 0
-45 43 0
-45 -44 0
45 -43 44 0
-46 -38 0
-46 45 0
46 38 -45 0
-47 29 0
-47 30 0
47 -29 -30 0
-48 46 0
-48 -47 0
48 -46 47 0
-49 31 0
-49 32 0
49 -31 -32 0
-50 48 0
-50 -49 0
50 -48 49 0
-51 33 0
-51 34 0
51 -33 -34 0
-52 50 0
-52 -51 0
52 -50 51 0
-53 35 0
-53 36 0
53 -35 -36 0
-54 52 0
-54 -53 0
54 -52 53 0
-55 -37 0
-55 -54 0
55 37 54 0
-56 15 0
-56 16 0
56 -15 -16 0
-57 13 0
-57 14 0
57 -13 -14 0
-58 3 0
-58 4 0
58 -3 -4 0
-59 1 0
-59 2 0
59 -1 -2 0
-60 -58 0
-60 -59 0
60 58 59 0
-61 5 0
-61 6 0
61 -5 -6 0
-62 60 0
-62 -61 0
62 -60 61 0
-63 7 0
-63 8 0
63 -7 -8 0
-64 62 0
-64 -63 0
64 -62 63 0
-65 9 0
-65 10 0
65 -9 -10 0
-66 64 0
-66 -65 0
66 -64 65 0
-67 11 0
-67 12 0
67 -11 -12 0
-68 66 0
-68 -67 0
68 -66 67 0
-69 -57 0
-69 68 0
69 57 -68 0
-70 -56 0
-70 69 0
70 56 -69 0
-71 17 0
-71 18 0
71 -17 -18 0
-72 70 0
-72 -71 0
72 -70 71 0
-73 37 0
-73 -72 0
73 -37 72 0
-74 -55 0
-74 -73 0
74 55 73 0
-74 0
